p cnf 500 1711
1 2 3 4 0
5 6 7 8 0
9 10 11 12 0
13 14 15 16 0
17 18 19 20 0
21 22 23 24 0
25 26 27 28 0
29 30 31 32 0
33 34 35 36 0
37 38 39 40 0
41 42 43 44 0
45 46 47 48 0
49 50 51 52 0
53 54 55 56 0
57 58 59 60 0
61 62 63 64 0
65 66 67 68 0
69 70 71 72 0
73 74 75 76 0
77 78 79 80 0
81 82 83 84 0
85 86 87 88 0
89 90 91 92 0
93 94 95 96 0
97 98 99 100 0
101 102 103 104 0
105 106 107 108 0
109 110 111 112 0
113 114 115 116 0
117 118 119 120 0
121 122 123 124 0
125 126 127 128 0
129 130 131 132 0
133 134 135 136 0
137 138 139 140 0
141 142 143 144 0
145 146 147 148 0
149 150 151 152 0
153 154 155 156 0
157 158 159 160 0
161 162 163 164 0
165 166 167 168 0
169 170 171 172 0
173 174 175 176 0
177 178 179 180 0
181 182 183 184 0
185 186 187 188 0
189 190 191 192 0
193 194 195 196 0
197 198 199 200 0
201 202 203 204 0
205 206 207 208 0
209 210 211 212 0
213 214 215 216 0
217 218 219 220 0
221 222 223 224 0
225 226 227 228 0
229 230 231 232 0
233 234 235 236 0
237 238 239 240 0
241 242 243 244 0
245 246 247 248 0
249 250 251 252 0
253 254 255 256 0
257 258 259 260 0
261 262 263 264 0
265 266 267 268 0
269 270 271 272 0
273 274 275 276 0
277 278 279 280 0
281 282 283 284 0
285 286 287 288 0
289 290 291 292 0
293 294 295 296 0
297 298 299 300 0
301 302 303 304 0
305 306 307 308 0
309 310 311 312 0
313 314 315 316 0
317 318 319 320 0
321 322 323 324 0
325 326 327 328 0
329 330 331 332 0
333 334 335 336 0
337 338 339 340 0
341 342 343 344 0
345 346 347 348 0
349 350 351 352 0
353 354 355 356 0
357 358 359 360 0
361 362 363 364 0
365 366 367 368 0
369 370 371 372 0
373 374 375 376 0
377 378 379 380 0
381 382 383 384 0
385 386 387 388 0
389 390 391 392 0
393 394 395 396 0
397 398 399 400 0
401 402 403 404 0
405 406 407 408 0
409 410 411 412 0
413 414 415 416 0
417 418 419 420 0
421 422 423 424 0
425 426 427 428 0
429 430 431 432 0
433 434 435 436 0
437 438 439 440 0
441 442 443 444 0
445 446 447 448 0
449 450 451 452 0
453 454 455 456 0
457 458 459 460 0
461 462 463 464 0
465 466 467 468 0
469 470 471 472 0
473 474 475 476 0
477 478 479 480 0
481 482 483 484 0
485 486 487 488 0
489 490 491 492 0
493 494 495 496 0
497 498 499 500 0
-1 -97 0
-2 -98 0
-3 -99 0
-4 -100 0
-1 -177 0
-2 -178 0
-3 -179 0
-4 -180 0
-1 -217 0
-2 -218 0
-3 -219 0
-4 -220 0
-1 -317 0
-2 -318 0
-3 -319 0
-4 -320 0
-5 -85 0
-6 -86 0
-7 -87 0
-8 -88 0
-5 -325 0
-6 -326 0
-7 -327 0
-8 -328 0
-9 -93 0
-10 -94 0
-11 -95 0
-12 -96 0
-9 -393 0
-10 -394 0
-11 -395 0
-12 -396 0
-9 -409 0
-10 -410 0
-11 -411 0
-12 -412 0
-13 -105 0
-14 -106 0
-15 -107 0
-16 -108 0
-13 -141 0
-14 -142 0
-15 -143 0
-16 -144 0
-13 -497 0
-14 -498 0
-15 -499 0
-16 -500 0
-21 -85 0
-22 -86 0
-23 -87 0
-24 -88 0
-21 -145 0
-22 -146 0
-23 -147 0
-24 -148 0
-21 -337 0
-22 -338 0
-23 -339 0
-24 -340 0
-21 -433 0
-22 -434 0
-23 -435 0
-24 -436 0
-21 -437 0
-22 -438 0
-23 -439 0
-24 -440 0
-21 -481 0
-22 -482 0
-23 -483 0
-24 -484 0
-25 -81 0
-26 -82 0
-27 -83 0
-28 -84 0
-25 -381 0
-26 -382 0
-27 -383 0
-28 -384 0
-29 -469 0
-30 -470 0
-31 -471 0
-32 -472 0
-33 -485 0
-34 -486 0
-35 -487 0
-36 -488 0
-37 -53 0
-38 -54 0
-39 -55 0
-40 -56 0
-37 -69 0
-38 -70 0
-39 -71 0
-40 -72 0
-37 -117 0
-38 -118 0
-39 -119 0
-40 -120 0
-37 -145 0
-38 -146 0
-39 -147 0
-40 -148 0
-37 -181 0
-38 -182 0
-39 -183 0
-40 -184 0
-37 -209 0
-38 -210 0
-39 -211 0
-40 -212 0
-37 -213 0
-38 -214 0
-39 -215 0
-40 -216 0
-37 -389 0
-38 -390 0
-39 -391 0
-40 -392 0
-41 -257 0
-42 -258 0
-43 -259 0
-44 -260 0
-41 -321 0
-42 -322 0
-43 -323 0
-44 -324 0
-41 -365 0
-42 -366 0
-43 -367 0
-44 -368 0
-45 -157 0
-46 -158 0
-47 -159 0
-48 -160 0
-45 -253 0
-46 -254 0
-47 -255 0
-48 -256 0
-45 -421 0
-46 -422 0
-47 -423 0
-48 -424 0
-49 -201 0
-50 -202 0
-51 -203 0
-52 -204 0
-49 -305 0
-50 -306 0
-51 -307 0
-52 -308 0
-49 -357 0
-50 -358 0
-51 -359 0
-52 -360 0
-49 -441 0
-50 -442 0
-51 -443 0
-52 -444 0
-53 -153 0
-54 -154 0
-55 -155 0
-56 -156 0
-53 -169 0
-54 -170 0
-55 -171 0
-56 -172 0
-53 -181 0
-54 -182 0
-55 -183 0
-56 -184 0
-53 -389 0
-54 -390 0
-55 -391 0
-56 -392 0
-53 -457 0
-54 -458 0
-55 -459 0
-56 -460 0
-57 -113 0
-58 -114 0
-59 -115 0
-60 -116 0
-61 -229 0
-62 -230 0
-63 -231 0
-64 -232 0
-61 -245 0
-62 -246 0
-63 -247 0
-64 -248 0
-65 -73 0
-66 -74 0
-67 -75 0
-68 -76 0
-65 -301 0
-66 -302 0
-67 -303 0
-68 -304 0
-69 -117 0
-70 -118 0
-71 -119 0
-72 -120 0
-69 -145 0
-70 -146 0
-71 -147 0
-72 -148 0
-69 -209 0
-70 -210 0
-71 -211 0
-72 -212 0
-69 -213 0
-70 -214 0
-71 -215 0
-72 -216 0
-69 -337 0
-70 -338 0
-71 -339 0
-72 -340 0
-69 -433 0
-70 -434 0
-71 -435 0
-72 -436 0
-73 -301 0
-74 -302 0
-75 -303 0
-76 -304 0
-73 -317 0
-74 -318 0
-75 -319 0
-76 -320 0
-77 -249 0
-78 -250 0
-79 -251 0
-80 -252 0
-77 -285 0
-78 -286 0
-79 -287 0
-80 -288 0
-81 -189 0
-82 -190 0
-83 -191 0
-84 -192 0
-81 -381 0
-82 -382 0
-83 -383 0
-84 -384 0
-81 -449 0
-82 -450 0
-83 -451 0
-84 -452 0
-85 -145 0
-86 -146 0
-87 -147 0
-88 -148 0
-85 -337 0
-86 -338 0
-87 -339 0
-88 -340 0
-85 -433 0
-86 -434 0
-87 -435 0
-88 -436 0
-93 -393 0
-94 -394 0
-95 -395 0
-96 -396 0
-97 -177 0
-98 -178 0
-99 -179 0
-100 -180 0
-97 -217 0
-98 -218 0
-99 -219 0
-100 -220 0
-97 -317 0
-98 -318 0
-99 -319 0
-100 -320 0
-101 -193 0
-102 -194 0
-103 -195 0
-104 -196 0
-101 -269 0
-102 -270 0
-103 -271 0
-104 -272 0
-105 -141 0
-106 -142 0
-107 -143 0
-108 -144 0
-105 -497 0
-106 -498 0
-107 -499 0
-108 -500 0
-109 -173 0
-110 -174 0
-111 -175 0
-112 -176 0
-109 -221 0
-110 -222 0
-111 -223 0
-112 -224 0
-109 -257 0
-110 -258 0
-111 -259 0
-112 -260 0
-109 -261 0
-110 -262 0
-111 -263 0
-112 -264 0
-109 -465 0
-110 -466 0
-111 -467 0
-112 -468 0
-113 -361 0
-114 -362 0
-115 -363 0
-116 -364 0
-117 -145 0
-118 -146 0
-119 -147 0
-120 -148 0
-117 -209 0
-118 -210 0
-119 -211 0
-120 -212 0
-117 -213 0
-118 -214 0
-119 -215 0
-120 -216 0
-117 -433 0
-118 -434 0
-119 -435 0
-120 -436 0
-121 -261 0
-122 -262 0
-123 -263 0
-124 -264 0
-121 -349 0
-122 -350 0
-123 -351 0
-124 -352 0
-121 -401 0
-122 -402 0
-123 -403 0
-124 -404 0
-121 -425 0
-122 -426 0
-123 -427 0
-124 -428 0
-121 -465 0
-122 -466 0
-123 -467 0
-124 -468 0
-125 -377 0
-126 -378 0
-127 -379 0
-128 -380 0
-125 -413 0
-126 -414 0
-127 -415 0
-128 -416 0
-129 -133 0
-130 -134 0
-131 -135 0
-132 -136 0
-129 -205 0
-130 -206 0
-131 -207 0
-132 -208 0
-133 -485 0
-134 -486 0
-135 -487 0
-136 -488 0
-137 -201 0
-138 -202 0
-139 -203 0
-140 -204 0
-137 -233 0
-138 -234 0
-139 -235 0
-140 -236 0
-137 -305 0
-138 -306 0
-139 -307 0
-140 -308 0
-137 -313 0
-138 -314 0
-139 -315 0
-140 -316 0
-137 -441 0
-138 -442 0
-139 -443 0
-140 -444 0
-141 -345 0
-142 -346 0
-143 -347 0
-144 -348 0
-141 -429 0
-142 -430 0
-143 -431 0
-144 -432 0
-141 -477 0
-142 -478 0
-143 -479 0
-144 -480 0
-141 -497 0
-142 -498 0
-143 -499 0
-144 -500 0
-145 -209 0
-146 -210 0
-147 -211 0
-148 -212 0
-145 -337 0
-146 -338 0
-147 -339 0
-148 -340 0
-145 -433 0
-146 -434 0
-147 -435 0
-148 -436 0
-149 -161 0
-150 -162 0
-151 -163 0
-152 -164 0
-149 -361 0
-150 -362 0
-151 -363 0
-152 -364 0
-153 -401 0
-154 -402 0
-155 -403 0
-156 -404 0
-153 -457 0
-154 -458 0
-155 -459 0
-156 -460 0
-161 -361 0
-162 -362 0
-163 -363 0
-164 -364 0
-165 -297 0
-166 -298 0
-167 -299 0
-168 -300 0
-165 -373 0
-166 -374 0
-167 -375 0
-168 -376 0
-169 -209 0
-170 -210 0
-171 -211 0
-172 -212 0
-169 -213 0
-170 -214 0
-171 -215 0
-172 -216 0
-173 -221 0
-174 -222 0
-175 -223 0
-176 -224 0
-173 -257 0
-174 -258 0
-175 -259 0
-176 -260 0
-173 -261 0
-174 -262 0
-175 -263 0
-176 -264 0
-173 -321 0
-174 -322 0
-175 -323 0
-176 -324 0
-173 -465 0
-174 -466 0
-175 -467 0
-176 -468 0
-177 -217 0
-178 -218 0
-179 -219 0
-180 -220 0
-177 -317 0
-178 -318 0
-179 -319 0
-180 -320 0
-181 -389 0
-182 -390 0
-183 -391 0
-184 -392 0
-181 -457 0
-182 -458 0
-183 -459 0
-184 -460 0
-185 -309 0
-186 -310 0
-187 -311 0
-188 -312 0
-185 -329 0
-186 -330 0
-187 -331 0
-188 -332 0
-189 -381 0
-190 -382 0
-191 -383 0
-192 -384 0
-189 -397 0
-190 -398 0
-191 -399 0
-192 -400 0
-193 -269 0
-194 -270 0
-195 -271 0
-196 -272 0
-197 -273 0
-198 -274 0
-199 -275 0
-200 -276 0
-197 -297 0
-198 -298 0
-199 -299 0
-200 -300 0
-197 -333 0
-198 -334 0
-199 -335 0
-200 -336 0
-197 -341 0
-198 -342 0
-199 -343 0
-200 -344 0
-197 -353 0
-198 -354 0
-199 -355 0
-200 -356 0
-197 -445 0
-198 -446 0
-199 -447 0
-200 -448 0
-201 -233 0
-202 -234 0
-203 -235 0
-204 -236 0
-201 -305 0
-202 -306 0
-203 -307 0
-204 -308 0
-201 -313 0
-202 -314 0
-203 -315 0
-204 -316 0
-201 -441 0
-202 -442 0
-203 -443 0
-204 -444 0
-205 -265 0
-206 -266 0
-207 -267 0
-208 -268 0
-205 -385 0
-206 -386 0
-207 -387 0
-208 -388 0
-209 -213 0
-210 -214 0
-211 -215 0
-212 -216 0
-217 -317 0
-218 -318 0
-219 -319 0
-220 -320 0
-221 -321 0
-222 -322 0
-223 -323 0
-224 -324 0
-221 -409 0
-222 -410 0
-223 -411 0
-224 -412 0
-225 -437 0
-226 -438 0
-227 -439 0
-228 -440 0
-225 -469 0
-226 -470 0
-227 -471 0
-228 -472 0
-225 -481 0
-226 -482 0
-227 -483 0
-228 -484 0
-225 -493 0
-226 -494 0
-227 -495 0
-228 -496 0
-229 -245 0
-230 -246 0
-231 -247 0
-232 -248 0
-229 -353 0
-230 -354 0
-231 -355 0
-232 -356 0
-233 -245 0
-234 -246 0
-235 -247 0
-236 -248 0
-233 -313 0
-234 -314 0
-235 -315 0
-236 -316 0
-233 -441 0
-234 -442 0
-235 -443 0
-236 -444 0
-237 -293 0
-238 -294 0
-239 -295 0
-240 -296 0
-237 -361 0
-238 -362 0
-239 -363 0
-240 -364 0
-241 -293 0
-242 -294 0
-243 -295 0
-244 -296 0
-249 -285 0
-250 -286 0
-251 -287 0
-252 -288 0
-249 -329 0
-250 -330 0
-251 -331 0
-252 -332 0
-253 -281 0
-254 -282 0
-255 -283 0
-256 -284 0
-253 -289 0
-254 -290 0
-255 -291 0
-256 -292 0
-257 -321 0
-258 -322 0
-259 -323 0
-260 -324 0
-257 -365 0
-258 -366 0
-259 -367 0
-260 -368 0
-261 -349 0
-262 -350 0
-263 -351 0
-264 -352 0
-261 -401 0
-262 -402 0
-263 -403 0
-264 -404 0
-261 -465 0
-262 -466 0
-263 -467 0
-264 -468 0
-265 -385 0
-266 -386 0
-267 -387 0
-268 -388 0
-273 -297 0
-274 -298 0
-275 -299 0
-276 -300 0
-273 -333 0
-274 -334 0
-275 -335 0
-276 -336 0
-273 -341 0
-274 -342 0
-275 -343 0
-276 -344 0
-277 -421 0
-278 -422 0
-279 -423 0
-280 -424 0
-277 -461 0
-278 -462 0
-279 -463 0
-280 -464 0
-281 -289 0
-282 -290 0
-283 -291 0
-284 -292 0
-289 -397 0
-290 -398 0
-291 -399 0
-292 -400 0
-293 -361 0
-294 -362 0
-295 -363 0
-296 -364 0
-301 -369 0
-302 -370 0
-303 -371 0
-304 -372 0
-305 -441 0
-306 -442 0
-307 -443 0
-308 -444 0
-333 -341 0
-334 -342 0
-335 -343 0
-336 -344 0
-333 -353 0
-334 -354 0
-335 -355 0
-336 -356 0
-333 -445 0
-334 -446 0
-335 -447 0
-336 -448 0
-337 -433 0
-338 -434 0
-339 -435 0
-340 -436 0
-341 -353 0
-342 -354 0
-343 -355 0
-344 -356 0
-341 -445 0
-342 -446 0
-343 -447 0
-344 -448 0
-345 -405 0
-346 -406 0
-347 -407 0
-348 -408 0
-345 -429 0
-346 -430 0
-347 -431 0
-348 -432 0
-345 -477 0
-346 -478 0
-347 -479 0
-348 -480 0
-345 -489 0
-346 -490 0
-347 -491 0
-348 -492 0
-345 -497 0
-346 -498 0
-347 -499 0
-348 -500 0
-349 -401 0
-350 -402 0
-351 -403 0
-352 -404 0
-349 -425 0
-350 -426 0
-351 -427 0
-352 -428 0
-353 -445 0
-354 -446 0
-355 -447 0
-356 -448 0
-365 -453 0
-366 -454 0
-367 -455 0
-368 -456 0
-377 -413 0
-378 -414 0
-379 -415 0
-380 -416 0
-381 -449 0
-382 -450 0
-383 -451 0
-384 -452 0
-389 -481 0
-390 -482 0
-391 -483 0
-392 -484 0
-389 -493 0
-390 -494 0
-391 -495 0
-392 -496 0
-401 -457 0
-402 -458 0
-403 -459 0
-404 -460 0
-401 -465 0
-402 -466 0
-403 -467 0
-404 -468 0
-405 -429 0
-406 -430 0
-407 -431 0
-408 -432 0
-405 -489 0
-406 -490 0
-407 -491 0
-408 -492 0
-421 -461 0
-422 -462 0
-423 -463 0
-424 -464 0
-425 -473 0
-426 -474 0
-427 -475 0
-428 -476 0
-429 -477 0
-430 -478 0
-431 -479 0
-432 -480 0
-429 -489 0
-430 -490 0
-431 -491 0
-432 -492 0
-429 -497 0
-430 -498 0
-431 -499 0
-432 -500 0
-437 -481 0
-438 -482 0
-439 -483 0
-440 -484 0
-437 -493 0
-438 -494 0
-439 -495 0
-440 -496 0
-477 -497 0
-478 -498 0
-479 -499 0
-480 -500 0
-481 -493 0
-482 -494 0
-483 -495 0
-484 -496 0
-2 -1 0
-3 -1 0
-3 -2 0
-4 -1 0
-4 -2 0
-4 -3 0
-6 -5 0
-7 -5 0
-7 -6 0
-8 -5 0
-8 -6 0
-8 -7 0
-10 -9 0
-11 -9 0
-11 -10 0
-12 -9 0
-12 -10 0
-12 -11 0
-14 -13 0
-15 -13 0
-15 -14 0
-16 -13 0
-16 -14 0
-16 -15 0
-18 -17 0
-19 -17 0
-19 -18 0
-20 -17 0
-20 -18 0
-20 -19 0
-22 -21 0
-23 -21 0
-23 -22 0
-24 -21 0
-24 -22 0
-24 -23 0
-26 -25 0
-27 -25 0
-27 -26 0
-28 -25 0
-28 -26 0
-28 -27 0
-30 -29 0
-31 -29 0
-31 -30 0
-32 -29 0
-32 -30 0
-32 -31 0
-34 -33 0
-35 -33 0
-35 -34 0
-36 -33 0
-36 -34 0
-36 -35 0
-38 -37 0
-39 -37 0
-39 -38 0
-40 -37 0
-40 -38 0
-40 -39 0
-42 -41 0
-43 -41 0
-43 -42 0
-44 -41 0
-44 -42 0
-44 -43 0
-46 -45 0
-47 -45 0
-47 -46 0
-48 -45 0
-48 -46 0
-48 -47 0
-50 -49 0
-51 -49 0
-51 -50 0
-52 -49 0
-52 -50 0
-52 -51 0
-54 -53 0
-55 -53 0
-55 -54 0
-56 -53 0
-56 -54 0
-56 -55 0
-58 -57 0
-59 -57 0
-59 -58 0
-60 -57 0
-60 -58 0
-60 -59 0
-62 -61 0
-63 -61 0
-63 -62 0
-64 -61 0
-64 -62 0
-64 -63 0
-66 -65 0
-67 -65 0
-67 -66 0
-68 -65 0
-68 -66 0
-68 -67 0
-70 -69 0
-71 -69 0
-71 -70 0
-72 -69 0
-72 -70 0
-72 -71 0
-74 -73 0
-75 -73 0
-75 -74 0
-76 -73 0
-76 -74 0
-76 -75 0
-78 -77 0
-79 -77 0
-79 -78 0
-80 -77 0
-80 -78 0
-80 -79 0
-82 -81 0
-83 -81 0
-83 -82 0
-84 -81 0
-84 -82 0
-84 -83 0
-86 -85 0
-87 -85 0
-87 -86 0
-88 -85 0
-88 -86 0
-88 -87 0
-90 -89 0
-91 -89 0
-91 -90 0
-92 -89 0
-92 -90 0
-92 -91 0
-94 -93 0
-95 -93 0
-95 -94 0
-96 -93 0
-96 -94 0
-96 -95 0
-98 -97 0
-99 -97 0
-99 -98 0
-100 -97 0
-100 -98 0
-100 -99 0
-102 -101 0
-103 -101 0
-103 -102 0
-104 -101 0
-104 -102 0
-104 -103 0
-106 -105 0
-107 -105 0
-107 -106 0
-108 -105 0
-108 -106 0
-108 -107 0
-110 -109 0
-111 -109 0
-111 -110 0
-112 -109 0
-112 -110 0
-112 -111 0
-114 -113 0
-115 -113 0
-115 -114 0
-116 -113 0
-116 -114 0
-116 -115 0
-118 -117 0
-119 -117 0
-119 -118 0
-120 -117 0
-120 -118 0
-120 -119 0
-122 -121 0
-123 -121 0
-123 -122 0
-124 -121 0
-124 -122 0
-124 -123 0
-126 -125 0
-127 -125 0
-127 -126 0
-128 -125 0
-128 -126 0
-128 -127 0
-130 -129 0
-131 -129 0
-131 -130 0
-132 -129 0
-132 -130 0
-132 -131 0
-134 -133 0
-135 -133 0
-135 -134 0
-136 -133 0
-136 -134 0
-136 -135 0
-138 -137 0
-139 -137 0
-139 -138 0
-140 -137 0
-140 -138 0
-140 -139 0
-142 -141 0
-143 -141 0
-143 -142 0
-144 -141 0
-144 -142 0
-144 -143 0
-146 -145 0
-147 -145 0
-147 -146 0
-148 -145 0
-148 -146 0
-148 -147 0
-150 -149 0
-151 -149 0
-151 -150 0
-152 -149 0
-152 -150 0
-152 -151 0
-154 -153 0
-155 -153 0
-155 -154 0
-156 -153 0
-156 -154 0
-156 -155 0
-158 -157 0
-159 -157 0
-159 -158 0
-160 -157 0
-160 -158 0
-160 -159 0
-162 -161 0
-163 -161 0
-163 -162 0
-164 -161 0
-164 -162 0
-164 -163 0
-166 -165 0
-167 -165 0
-167 -166 0
-168 -165 0
-168 -166 0
-168 -167 0
-170 -169 0
-171 -169 0
-171 -170 0
-172 -169 0
-172 -170 0
-172 -171 0
-174 -173 0
-175 -173 0
-175 -174 0
-176 -173 0
-176 -174 0
-176 -175 0
-178 -177 0
-179 -177 0
-179 -178 0
-180 -177 0
-180 -178 0
-180 -179 0
-182 -181 0
-183 -181 0
-183 -182 0
-184 -181 0
-184 -182 0
-184 -183 0
-186 -185 0
-187 -185 0
-187 -186 0
-188 -185 0
-188 -186 0
-188 -187 0
-190 -189 0
-191 -189 0
-191 -190 0
-192 -189 0
-192 -190 0
-192 -191 0
-194 -193 0
-195 -193 0
-195 -194 0
-196 -193 0
-196 -194 0
-196 -195 0
-198 -197 0
-199 -197 0
-199 -198 0
-200 -197 0
-200 -198 0
-200 -199 0
-202 -201 0
-203 -201 0
-203 -202 0
-204 -201 0
-204 -202 0
-204 -203 0
-206 -205 0
-207 -205 0
-207 -206 0
-208 -205 0
-208 -206 0
-208 -207 0
-210 -209 0
-211 -209 0
-211 -210 0
-212 -209 0
-212 -210 0
-212 -211 0
-214 -213 0
-215 -213 0
-215 -214 0
-216 -213 0
-216 -214 0
-216 -215 0
-218 -217 0
-219 -217 0
-219 -218 0
-220 -217 0
-220 -218 0
-220 -219 0
-222 -221 0
-223 -221 0
-223 -222 0
-224 -221 0
-224 -222 0
-224 -223 0
-226 -225 0
-227 -225 0
-227 -226 0
-228 -225 0
-228 -226 0
-228 -227 0
-230 -229 0
-231 -229 0
-231 -230 0
-232 -229 0
-232 -230 0
-232 -231 0
-234 -233 0
-235 -233 0
-235 -234 0
-236 -233 0
-236 -234 0
-236 -235 0
-238 -237 0
-239 -237 0
-239 -238 0
-240 -237 0
-240 -238 0
-240 -239 0
-242 -241 0
-243 -241 0
-243 -242 0
-244 -241 0
-244 -242 0
-244 -243 0
-246 -245 0
-247 -245 0
-247 -246 0
-248 -245 0
-248 -246 0
-248 -247 0
-250 -249 0
-251 -249 0
-251 -250 0
-252 -249 0
-252 -250 0
-252 -251 0
-254 -253 0
-255 -253 0
-255 -254 0
-256 -253 0
-256 -254 0
-256 -255 0
-258 -257 0
-259 -257 0
-259 -258 0
-260 -257 0
-260 -258 0
-260 -259 0
-262 -261 0
-263 -261 0
-263 -262 0
-264 -261 0
-264 -262 0
-264 -263 0
-266 -265 0
-267 -265 0
-267 -266 0
-268 -265 0
-268 -266 0
-268 -267 0
-270 -269 0
-271 -269 0
-271 -270 0
-272 -269 0
-272 -270 0
-272 -271 0
-274 -273 0
-275 -273 0
-275 -274 0
-276 -273 0
-276 -274 0
-276 -275 0
-278 -277 0
-279 -277 0
-279 -278 0
-280 -277 0
-280 -278 0
-280 -279 0
-282 -281 0
-283 -281 0
-283 -282 0
-284 -281 0
-284 -282 0
-284 -283 0
-286 -285 0
-287 -285 0
-287 -286 0
-288 -285 0
-288 -286 0
-288 -287 0
-290 -289 0
-291 -289 0
-291 -290 0
-292 -289 0
-292 -290 0
-292 -291 0
-294 -293 0
-295 -293 0
-295 -294 0
-296 -293 0
-296 -294 0
-296 -295 0
-298 -297 0
-299 -297 0
-299 -298 0
-300 -297 0
-300 -298 0
-300 -299 0
-302 -301 0
-303 -301 0
-303 -302 0
-304 -301 0
-304 -302 0
-304 -303 0
-306 -305 0
-307 -305 0
-307 -306 0
-308 -305 0
-308 -306 0
-308 -307 0
-310 -309 0
-311 -309 0
-311 -310 0
-312 -309 0
-312 -310 0
-312 -311 0
-314 -313 0
-315 -313 0
-315 -314 0
-316 -313 0
-316 -314 0
-316 -315 0
-318 -317 0
-319 -317 0
-319 -318 0
-320 -317 0
-320 -318 0
-320 -319 0
-322 -321 0
-323 -321 0
-323 -322 0
-324 -321 0
-324 -322 0
-324 -323 0
-326 -325 0
-327 -325 0
-327 -326 0
-328 -325 0
-328 -326 0
-328 -327 0
-330 -329 0
-331 -329 0
-331 -330 0
-332 -329 0
-332 -330 0
-332 -331 0
-334 -333 0
-335 -333 0
-335 -334 0
-336 -333 0
-336 -334 0
-336 -335 0
-338 -337 0
-339 -337 0
-339 -338 0
-340 -337 0
-340 -338 0
-340 -339 0
-342 -341 0
-343 -341 0
-343 -342 0
-344 -341 0
-344 -342 0
-344 -343 0
-346 -345 0
-347 -345 0
-347 -346 0
-348 -345 0
-348 -346 0
-348 -347 0
-350 -349 0
-351 -349 0
-351 -350 0
-352 -349 0
-352 -350 0
-352 -351 0
-354 -353 0
-355 -353 0
-355 -354 0
-356 -353 0
-356 -354 0
-356 -355 0
-358 -357 0
-359 -357 0
-359 -358 0
-360 -357 0
-360 -358 0
-360 -359 0
-362 -361 0
-363 -361 0
-363 -362 0
-364 -361 0
-364 -362 0
-364 -363 0
-366 -365 0
-367 -365 0
-367 -366 0
-368 -365 0
-368 -366 0
-368 -367 0
-370 -369 0
-371 -369 0
-371 -370 0
-372 -369 0
-372 -370 0
-372 -371 0
-374 -373 0
-375 -373 0
-375 -374 0
-376 -373 0
-376 -374 0
-376 -375 0
-378 -377 0
-379 -377 0
-379 -378 0
-380 -377 0
-380 -378 0
-380 -379 0
-382 -381 0
-383 -381 0
-383 -382 0
-384 -381 0
-384 -382 0
-384 -383 0
-386 -385 0
-387 -385 0
-387 -386 0
-388 -385 0
-388 -386 0
-388 -387 0
-390 -389 0
-391 -389 0
-391 -390 0
-392 -389 0
-392 -390 0
-392 -391 0
-394 -393 0
-395 -393 0
-395 -394 0
-396 -393 0
-396 -394 0
-396 -395 0
-398 -397 0
-399 -397 0
-399 -398 0
-400 -397 0
-400 -398 0
-400 -399 0
-402 -401 0
-403 -401 0
-403 -402 0
-404 -401 0
-404 -402 0
-404 -403 0
-406 -405 0
-407 -405 0
-407 -406 0
-408 -405 0
-408 -406 0
-408 -407 0
-410 -409 0
-411 -409 0
-411 -410 0
-412 -409 0
-412 -410 0
-412 -411 0
-414 -413 0
-415 -413 0
-415 -414 0
-416 -413 0
-416 -414 0
-416 -415 0
-418 -417 0
-419 -417 0
-419 -418 0
-420 -417 0
-420 -418 0
-420 -419 0
-422 -421 0
-423 -421 0
-423 -422 0
-424 -421 0
-424 -422 0
-424 -423 0
-426 -425 0
-427 -425 0
-427 -426 0
-428 -425 0
-428 -426 0
-428 -427 0
-430 -429 0
-431 -429 0
-431 -430 0
-432 -429 0
-432 -430 0
-432 -431 0
-434 -433 0
-435 -433 0
-435 -434 0
-436 -433 0
-436 -434 0
-436 -435 0
-438 -437 0
-439 -437 0
-439 -438 0
-440 -437 0
-440 -438 0
-440 -439 0
-442 -441 0
-443 -441 0
-443 -442 0
-444 -441 0
-444 -442 0
-444 -443 0
-446 -445 0
-447 -445 0
-447 -446 0
-448 -445 0
-448 -446 0
-448 -447 0
-450 -449 0
-451 -449 0
-451 -450 0
-452 -449 0
-452 -450 0
-452 -451 0
-454 -453 0
-455 -453 0
-455 -454 0
-456 -453 0
-456 -454 0
-456 -455 0
-458 -457 0
-459 -457 0
-459 -458 0
-460 -457 0
-460 -458 0
-460 -459 0
-462 -461 0
-463 -461 0
-463 -462 0
-464 -461 0
-464 -462 0
-464 -463 0
-466 -465 0
-467 -465 0
-467 -466 0
-468 -465 0
-468 -466 0
-468 -467 0
-470 -469 0
-471 -469 0
-471 -470 0
-472 -469 0
-472 -470 0
-472 -471 0
-474 -473 0
-475 -473 0
-475 -474 0
-476 -473 0
-476 -474 0
-476 -475 0
-478 -477 0
-479 -477 0
-479 -478 0
-480 -477 0
-480 -478 0
-480 -479 0
-482 -481 0
-483 -481 0
-483 -482 0
-484 -481 0
-484 -482 0
-484 -483 0
-486 -485 0
-487 -485 0
-487 -486 0
-488 -485 0
-488 -486 0
-488 -487 0
-490 -489 0
-491 -489 0
-491 -490 0
-492 -489 0
-492 -490 0
-492 -491 0
-494 -493 0
-495 -493 0
-495 -494 0
-496 -493 0
-496 -494 0
-496 -495 0
-498 -497 0
-499 -497 0
-499 -498 0
-500 -497 0
-500 -498 0
-500 -499 0
